c Cardinality constraint <=k(x_1,...,x_n) for k = 2 and n = 9.
p cnf 25 38
-1 10 0
-11 0
-2 12 0
-10 12 0
-2 -10 13 0
-11 13 0
-2 -11 0
-3 14 0
-12 14 0
-3 -12 15 0
-13 15 0
-3 -13 0
-4 16 0
-14 16 0
-4 -14 17 0
-15 17 0
-4 -15 0
-5 18 0
-16 18 0
-5 -16 19 0
-17 19 0
-5 -17 0
-6 20 0
-18 20 0
-6 -18 21 0
-19 21 0
-6 -19 0
-7 22 0
-20 22 0
-7 -20 23 0
-21 23 0
-7 -21 0
-8 24 0
-22 24 0
-8 -22 25 0
-23 25 0
-8 -23 0
-9 -25 0
